(benchmark SmtAuflia_2008_To_12_To_05_15h46m46s :status unknown
 :logic AUFLIA
 :extrapreds ((is_int Int))
 :extrapreds ((Func_p_UIP Int))
 :formula (not (implies true (implies (and (forall (?LogVar_x_0_int Int) (implies (is_int ?LogVar_x_0_int) (implies (Func_p_UIP ?LogVar_x_0_int) (Func_p_UIP (+ ?LogVar_x_0_int 1))))) (Func_p_UIP 0)) (Func_p_UIP 2))))
)
